(set-info :smt-lib-version 2.6)
(set-logic QF_LRA)
(set-info :source |
Fully parameterized specification and verification of a synchronizer   
circuit modeling metastability at various levels of refinement.     
A paper describing this specification, to be published in Designing     
Correct Circuits (DCC), 2006, is available from the authors.            

Geoffrey Brown, Indiana University <geobrown@cs.indiana.edu>
Lee Pike, Galois Connections, Inc. <leepike@galois.com>

Translated into CVC format by Leonardo de Moura.

This benchmark was automatically translated into SMT-LIB format from
CVC format using CVC Lite

|)
(set-info :category "industrial")
(set-info :status sat)
(declare-fun x_0 () Bool)
(declare-fun x_1 () Bool)
(declare-fun x_2 () Real)
(declare-fun x_3 () Real)
(declare-fun x_4 () Bool)
(declare-fun x_5 () Bool)
(declare-fun x_6 () Real)
(declare-fun x_7 () Real)
(declare-fun x_8 () Bool)
(declare-fun x_9 () Bool)
(declare-fun x_10 () Real)
(declare-fun x_11 () Real)
(declare-fun x_12 () Bool)
(declare-fun x_13 () Bool)
(declare-fun x_14 () Real)
(declare-fun x_15 () Real)
(declare-fun x_16 () Bool)
(declare-fun x_17 () Bool)
(declare-fun x_18 () Real)
(declare-fun x_19 () Real)
(declare-fun x_20 () Bool)
(declare-fun x_21 () Bool)
(declare-fun x_22 () Real)
(declare-fun x_23 () Real)
(declare-fun x_24 () Bool)
(declare-fun x_25 () Bool)
(declare-fun x_26 () Real)
(declare-fun x_27 () Real)
(declare-fun x_28 () Bool)
(declare-fun x_29 () Bool)
(declare-fun x_30 () Real)
(declare-fun x_31 () Real)
(declare-fun x_32 () Bool)
(declare-fun x_33 () Bool)
(declare-fun x_34 () Real)
(declare-fun x_35 () Real)
(declare-fun x_36 () Bool)
(declare-fun x_37 () Bool)
(declare-fun x_38 () Real)
(declare-fun x_39 () Real)
(declare-fun x_40 () Bool)
(declare-fun x_41 () Bool)
(declare-fun x_42 () Real)
(declare-fun x_43 () Real)
(declare-fun x_44 () Bool)
(declare-fun x_45 () Bool)
(declare-fun x_46 () Real)
(declare-fun x_47 () Real)
(declare-fun x_48 () Bool)
(declare-fun x_49 () Bool)
(declare-fun x_50 () Real)
(declare-fun x_51 () Real)
(declare-fun x_52 () Bool)
(declare-fun x_53 () Bool)
(declare-fun x_54 () Real)
(declare-fun x_55 () Real)
(declare-fun x_56 () Bool)
(declare-fun x_57 () Bool)
(declare-fun x_58 () Real)
(declare-fun x_59 () Real)
(declare-fun x_60 () Real)
(declare-fun x_61 () Real)
(declare-fun x_62 () Real)
(declare-fun x_63 () Real)
(declare-fun x_64 () Real)
(declare-fun x_65 () Real)
(declare-fun x_66 () Real)
(declare-fun x_67 () Real)
(declare-fun x_68 () Real)
(declare-fun x_69 () Real)
(declare-fun x_70 () Real)
(declare-fun x_71 () Real)
(declare-fun x_72 () Real)
(declare-fun x_73 () Real)
(declare-fun x_74 () Real)
(declare-fun x_75 () Real)
(declare-fun x_76 () Real)
(declare-fun x_77 () Real)
(declare-fun x_78 () Real)
(declare-fun x_79 () Real)
(declare-fun x_80 () Real)
(declare-fun x_81 () Real)
(declare-fun x_82 () Real)
(declare-fun x_83 () Real)
(declare-fun x_84 () Real)
(declare-fun x_85 () Real)
(declare-fun x_86 () Real)
(declare-fun x_87 () Real)
(declare-fun x_88 () Real)
(declare-fun x_89 () Real)
(declare-fun x_90 () Real)
(declare-fun x_91 () Real)
(declare-fun x_92 () Real)
(declare-fun x_93 () Real)
(declare-fun x_94 () Real)
(declare-fun x_95 () Real)
(declare-fun x_96 () Real)
(declare-fun x_97 () Real)
(declare-fun x_98 () Real)
(declare-fun x_99 () Real)
(declare-fun x_100 () Real)
(declare-fun x_101 () Real)
(declare-fun x_102 () Real)
(declare-fun x_103 () Real)
(declare-fun x_104 () Real)
(declare-fun x_105 () Real)
(declare-fun x_106 () Real)
(declare-fun x_107 () Real)
(declare-fun x_108 () Real)
(declare-fun x_109 () Real)
(declare-fun x_110 () Real)
(declare-fun x_111 () Real)
(declare-fun x_112 () Real)
(declare-fun x_113 () Real)
(declare-fun x_114 () Real)
(declare-fun x_115 () Real)
(declare-fun x_116 () Real)
(declare-fun x_117 () Real)
(declare-fun x_118 () Real)
(declare-fun x_119 () Real)
(declare-fun x_120 () Real)
(declare-fun x_121 () Real)
(declare-fun x_122 () Real)
(declare-fun x_123 () Real)
(declare-fun x_124 () Real)
(declare-fun x_125 () Real)
(declare-fun x_126 () Real)
(declare-fun x_127 () Real)
(declare-fun x_128 () Real)
(declare-fun x_129 () Real)
(declare-fun x_130 () Real)
(declare-fun x_131 () Real)
(declare-fun x_132 () Real)
(declare-fun x_133 () Real)
(declare-fun x_134 () Real)
(declare-fun x_135 () Real)
(declare-fun x_136 () Real)
(declare-fun x_137 () Real)
(declare-fun x_138 () Real)
(declare-fun x_139 () Real)
(declare-fun x_140 () Real)
(declare-fun x_141 () Real)
(declare-fun x_142 () Real)
(declare-fun x_143 () Real)
(declare-fun x_144 () Bool)
(declare-fun x_145 () Bool)
(declare-fun x_146 () Real)
(declare-fun x_147 () Bool)
(declare-fun x_148 () Bool)
(declare-fun x_149 () Bool)
(declare-fun x_150 () Bool)
(declare-fun x_151 () Bool)
(declare-fun x_152 () Real)
(declare-fun x_153 () Bool)
(declare-fun x_154 () Real)
(declare-fun x_155 () Real)
(declare-fun x_156 () Real)
(declare-fun x_157 () Bool)
(declare-fun x_158 () Real)
(declare-fun x_159 () Bool)
(declare-fun x_160 () Bool)
(declare-fun x_161 () Real)
(declare-fun x_162 () Bool)
(declare-fun x_163 () Real)
(declare-fun x_164 () Real)
(declare-fun x_165 () Real)
(declare-fun x_166 () Bool)
(declare-fun x_167 () Real)
(declare-fun x_168 () Bool)
(declare-fun x_169 () Bool)
(declare-fun x_170 () Real)
(declare-fun x_171 () Bool)
(declare-fun x_172 () Real)
(declare-fun x_173 () Real)
(declare-fun x_174 () Real)
(declare-fun x_175 () Bool)
(declare-fun x_176 () Real)
(declare-fun x_177 () Bool)
(declare-fun x_178 () Bool)
(declare-fun x_179 () Real)
(declare-fun x_180 () Bool)
(declare-fun x_181 () Real)
(declare-fun x_182 () Real)
(declare-fun x_183 () Real)
(declare-fun x_184 () Bool)
(declare-fun x_185 () Real)
(declare-fun x_186 () Bool)
(declare-fun x_187 () Bool)
(declare-fun x_188 () Real)
(declare-fun x_189 () Bool)
(declare-fun x_190 () Real)
(declare-fun x_191 () Real)
(declare-fun x_192 () Real)
(declare-fun x_193 () Bool)
(declare-fun x_194 () Real)
(declare-fun x_195 () Bool)
(declare-fun x_196 () Bool)
(declare-fun x_197 () Real)
(declare-fun x_198 () Bool)
(declare-fun x_199 () Real)
(declare-fun x_200 () Real)
(declare-fun x_201 () Real)
(declare-fun x_202 () Bool)
(declare-fun x_203 () Real)
(declare-fun x_204 () Bool)
(declare-fun x_205 () Bool)
(declare-fun x_206 () Real)
(declare-fun x_207 () Bool)
(declare-fun x_208 () Real)
(declare-fun x_209 () Real)
(declare-fun x_210 () Real)
(declare-fun x_211 () Bool)
(declare-fun x_212 () Real)
(declare-fun x_213 () Bool)
(declare-fun x_214 () Bool)
(declare-fun x_215 () Real)
(declare-fun x_216 () Bool)
(declare-fun x_217 () Real)
(declare-fun x_218 () Real)
(declare-fun x_219 () Real)
(declare-fun x_220 () Bool)
(declare-fun x_221 () Real)
(declare-fun x_222 () Bool)
(declare-fun x_223 () Bool)
(declare-fun x_224 () Real)
(declare-fun x_225 () Bool)
(declare-fun x_226 () Real)
(declare-fun x_227 () Real)
(declare-fun x_228 () Real)
(declare-fun x_229 () Bool)
(declare-fun x_230 () Real)
(declare-fun x_231 () Bool)
(declare-fun x_232 () Bool)
(declare-fun x_233 () Real)
(declare-fun x_234 () Bool)
(declare-fun x_235 () Real)
(declare-fun x_236 () Real)
(declare-fun x_237 () Real)
(declare-fun x_238 () Bool)
(declare-fun x_239 () Real)
(declare-fun x_240 () Bool)
(declare-fun x_241 () Bool)
(declare-fun x_242 () Real)
(declare-fun x_243 () Bool)
(declare-fun x_244 () Real)
(declare-fun x_245 () Real)
(declare-fun x_246 () Real)
(declare-fun x_247 () Bool)
(declare-fun x_248 () Real)
(declare-fun x_249 () Bool)
(declare-fun x_250 () Bool)
(declare-fun x_251 () Real)
(declare-fun x_252 () Bool)
(declare-fun x_253 () Real)
(declare-fun x_254 () Real)
(declare-fun x_255 () Real)
(declare-fun x_256 () Bool)
(declare-fun x_257 () Real)
(declare-fun x_258 () Bool)
(declare-fun x_259 () Bool)
(declare-fun x_260 () Real)
(declare-fun x_261 () Bool)
(declare-fun x_262 () Real)
(declare-fun x_263 () Real)
(declare-fun x_264 () Real)
(declare-fun x_265 () Bool)
(declare-fun x_266 () Real)
(declare-fun x_267 () Bool)
(declare-fun x_268 () Bool)
(declare-fun x_269 () Real)
(declare-fun x_270 () Bool)
(declare-fun x_271 () Real)
(declare-fun x_272 () Real)
(declare-fun x_273 () Real)
(declare-fun x_274 () Bool)
(declare-fun x_275 () Real)
(declare-fun x_276 () Real)
(declare-fun x_277 () Bool)
(declare-fun x_278 () Bool)
(declare-fun x_279 () Bool)
(declare-fun x_280 () Bool)
(declare-fun x_281 () Real)
(declare-fun x_282 () Bool)
(declare-fun x_283 () Real)
(declare-fun x_284 () Real)
(declare-fun x_285 () Real)
(declare-fun x_286 () Real)
(assert (let ((?v_30 (ite (<= x_60 x_61) x_60 x_61)) (?v_28 (ite (<= x_69 x_70) x_69 x_70)) (?v_26 (ite (<= x_74 x_75) x_74 x_75)) (?v_24 (ite (<= x_79 x_80) x_79 x_80)) (?v_22 (ite (<= x_84 x_85) x_84 x_85)) (?v_20 (ite (<= x_89 x_90) x_89 x_90)) (?v_18 (ite (<= x_94 x_95) x_94 x_95)) (?v_16 (ite (<= x_99 x_100) x_99 x_100)) (?v_14 (ite (<= x_104 x_105) x_104 x_105)) (?v_12 (ite (<= x_109 x_110) x_109 x_110)) (?v_10 (ite (<= x_114 x_115) x_114 x_115)) (?v_8 (ite (<= x_119 x_120) x_119 x_120)) (?v_6 (ite (<= x_124 x_125) x_124 x_125)) (?v_4 (ite (<= x_129 x_130) x_129 x_130)) (?v_2 (ite (<= x_134 x_135) x_134 x_135)) (?v_0 (ite (<= x_139 x_140) x_139 x_140)) (?v_233 (= x_71 x_65)) (?v_235 (= x_61 x_70)) (?v_237 (= x_73 x_67)) (?v_231 (= x_60 x_69))) (let ((?v_238 (not ?v_231)) (?v_241 (= x_72 x_66)) (?v_228 (= x_144 x_145)) (?v_229 (= x_7 x_3)) (?v_232 (ite (<= x_61 x_60) x_61 x_60)) (?v_219 (= x_76 x_71)) (?v_221 (= x_70 x_75)) (?v_223 (= x_78 x_73)) (?v_217 (= x_69 x_74))) (let ((?v_224 (not ?v_217)) (?v_227 (= x_77 x_72)) (?v_214 (= x_157 x_144)) (?v_215 (= x_11 x_7)) (?v_218 (ite (<= x_70 x_69) x_70 x_69)) (?v_205 (= x_81 x_76)) (?v_207 (= x_75 x_80)) (?v_209 (= x_83 x_78)) (?v_203 (= x_74 x_79))) (let ((?v_210 (not ?v_203)) (?v_213 (= x_82 x_77)) (?v_200 (= x_166 x_157)) (?v_201 (= x_15 x_11)) (?v_204 (ite (<= x_75 x_74) x_75 x_74)) (?v_191 (= x_86 x_81)) (?v_193 (= x_80 x_85)) (?v_195 (= x_88 x_83)) (?v_189 (= x_79 x_84))) (let ((?v_196 (not ?v_189)) (?v_199 (= x_87 x_82)) (?v_186 (= x_175 x_166)) (?v_187 (= x_19 x_15)) (?v_190 (ite (<= x_80 x_79) x_80 x_79)) (?v_177 (= x_91 x_86)) (?v_179 (= x_85 x_90)) (?v_181 (= x_93 x_88)) (?v_175 (= x_84 x_89))) (let ((?v_182 (not ?v_175)) (?v_185 (= x_92 x_87)) (?v_172 (= x_184 x_175)) (?v_173 (= x_23 x_19)) (?v_176 (ite (<= x_85 x_84) x_85 x_84)) (?v_163 (= x_96 x_91)) (?v_165 (= x_90 x_95)) (?v_167 (= x_98 x_93)) (?v_161 (= x_89 x_94))) (let ((?v_168 (not ?v_161)) (?v_171 (= x_97 x_92)) (?v_158 (= x_193 x_184)) (?v_159 (= x_27 x_23)) (?v_162 (ite (<= x_90 x_89) x_90 x_89)) (?v_149 (= x_101 x_96)) (?v_151 (= x_95 x_100)) (?v_153 (= x_103 x_98)) (?v_147 (= x_94 x_99))) (let ((?v_154 (not ?v_147)) (?v_157 (= x_102 x_97)) (?v_144 (= x_202 x_193)) (?v_145 (= x_31 x_27)) (?v_148 (ite (<= x_95 x_94) x_95 x_94)) (?v_135 (= x_106 x_101)) (?v_137 (= x_100 x_105)) (?v_139 (= x_108 x_103)) (?v_133 (= x_99 x_104))) (let ((?v_140 (not ?v_133)) (?v_143 (= x_107 x_102)) (?v_130 (= x_211 x_202)) (?v_131 (= x_35 x_31)) (?v_134 (ite (<= x_100 x_99) x_100 x_99)) (?v_121 (= x_111 x_106)) (?v_123 (= x_105 x_110)) (?v_125 (= x_113 x_108)) (?v_119 (= x_104 x_109))) (let ((?v_126 (not ?v_119)) (?v_129 (= x_112 x_107)) (?v_116 (= x_220 x_211)) (?v_117 (= x_39 x_35)) (?v_120 (ite (<= x_105 x_104) x_105 x_104)) (?v_107 (= x_116 x_111)) (?v_109 (= x_110 x_115)) (?v_111 (= x_118 x_113)) (?v_105 (= x_109 x_114))) (let ((?v_112 (not ?v_105)) (?v_115 (= x_117 x_112)) (?v_102 (= x_229 x_220)) (?v_103 (= x_43 x_39)) (?v_106 (ite (<= x_110 x_109) x_110 x_109)) (?v_93 (= x_121 x_116)) (?v_95 (= x_115 x_120)) (?v_97 (= x_123 x_118)) (?v_91 (= x_114 x_119))) (let ((?v_98 (not ?v_91)) (?v_101 (= x_122 x_117)) (?v_88 (= x_238 x_229)) (?v_89 (= x_47 x_43)) (?v_92 (ite (<= x_115 x_114) x_115 x_114)) (?v_79 (= x_126 x_121)) (?v_81 (= x_120 x_125)) (?v_83 (= x_128 x_123)) (?v_77 (= x_119 x_124))) (let ((?v_84 (not ?v_77)) (?v_87 (= x_127 x_122)) (?v_74 (= x_247 x_238)) (?v_75 (= x_51 x_47)) (?v_78 (ite (<= x_120 x_119) x_120 x_119)) (?v_65 (= x_131 x_126)) (?v_67 (= x_125 x_130)) (?v_69 (= x_133 x_128)) (?v_63 (= x_124 x_129))) (let ((?v_70 (not ?v_63)) (?v_73 (= x_132 x_127)) (?v_60 (= x_256 x_247)) (?v_61 (= x_55 x_51)) (?v_64 (ite (<= x_125 x_124) x_125 x_124)) (?v_51 (= x_136 x_131)) (?v_53 (= x_130 x_135)) (?v_55 (= x_138 x_133)) (?v_49 (= x_129 x_134))) (let ((?v_56 (not ?v_49)) (?v_59 (= x_137 x_132)) (?v_46 (= x_265 x_256)) (?v_47 (= x_59 x_55)) (?v_50 (ite (<= x_130 x_129) x_130 x_129)) (?v_37 (= x_141 x_136)) (?v_39 (= x_135 x_140)) (?v_41 (= x_143 x_138)) (?v_35 (= x_134 x_139))) (let ((?v_42 (not ?v_35)) (?v_45 (= x_142 x_137)) (?v_32 (= x_274 x_265)) (?v_33 (= x_275 x_59)) (?v_36 (ite (<= x_135 x_134) x_135 x_134)) (?v_34 (= x_278 x_57)) (?v_44 (= x_59 x_275)) (?v_48 (= x_57 x_53)) (?v_58 (= x_55 x_59)) (?v_62 (= x_53 x_49)) (?v_72 (= x_51 x_55)) (?v_76 (= x_49 x_45)) (?v_86 (= x_47 x_51)) (?v_90 (= x_45 x_41)) (?v_100 (= x_43 x_47)) (?v_104 (= x_41 x_37)) (?v_114 (= x_39 x_43)) (?v_118 (= x_37 x_33)) (?v_128 (= x_35 x_39)) (?v_132 (= x_33 x_29)) (?v_142 (= x_31 x_35)) (?v_146 (= x_29 x_25)) (?v_156 (= x_27 x_31)) (?v_160 (= x_25 x_21)) (?v_170 (= x_23 x_27)) (?v_174 (= x_21 x_17)) (?v_184 (= x_19 x_23)) (?v_188 (= x_17 x_13)) (?v_198 (= x_15 x_19)) (?v_202 (= x_13 x_9)) (?v_212 (= x_11 x_15)) (?v_216 (= x_9 x_5)) (?v_226 (= x_7 x_11)) (?v_230 (= x_5 x_1)) (?v_240 (= x_3 x_7)) (?v_38 (<= x_138 ?v_2)) (?v_52 (<= x_133 ?v_4)) (?v_66 (<= x_128 ?v_6)) (?v_80 (<= x_123 ?v_8)) (?v_94 (<= x_118 ?v_10)) (?v_108 (<= x_113 ?v_12)) (?v_122 (<= x_108 ?v_14)) (?v_136 (<= x_103 ?v_16)) (?v_150 (<= x_98 ?v_18)) (?v_164 (<= x_93 ?v_20)) (?v_178 (<= x_88 ?v_22)) (?v_192 (<= x_83 ?v_24)) (?v_206 (<= x_78 ?v_26)) (?v_220 (<= x_73 ?v_28)) (?v_234 (<= x_67 ?v_30)) (?v_1 (+ ?v_0 x_64)) (?v_40 (+ ?v_2 x_68)) (?v_3 (+ ?v_2 x_64)) (?v_54 (+ ?v_4 x_68)) (?v_5 (+ ?v_4 x_64)) (?v_68 (+ ?v_6 x_68)) (?v_7 (+ ?v_6 x_64)) (?v_82 (+ ?v_8 x_68)) (?v_9 (+ ?v_8 x_64)) (?v_96 (+ ?v_10 x_68)) (?v_11 (+ ?v_10 x_64)) (?v_110 (+ ?v_12 x_68)) (?v_13 (+ ?v_12 x_64)) (?v_124 (+ ?v_14 x_68)) (?v_15 (+ ?v_14 x_64)) (?v_138 (+ ?v_16 x_68)) (?v_17 (+ ?v_16 x_64)) (?v_152 (+ ?v_18 x_68)) (?v_19 (+ ?v_18 x_64)) (?v_166 (+ ?v_20 x_68)) (?v_21 (+ ?v_20 x_64)) (?v_180 (+ ?v_22 x_68)) (?v_23 (+ ?v_22 x_64)) (?v_194 (+ ?v_24 x_68)) (?v_25 (+ ?v_24 x_64)) (?v_208 (+ ?v_26 x_68)) (?v_27 (+ ?v_26 x_64)) (?v_222 (+ ?v_28 x_68)) (?v_29 (+ ?v_28 x_64)) (?v_236 (+ ?v_30 x_68)) (?v_31 (+ ?v_30 x_64))) (let ((?v_43 (+ ?v_36 x_64)) (?v_57 (+ ?v_50 x_64)) (?v_71 (+ ?v_64 x_64)) (?v_85 (+ ?v_78 x_64)) (?v_99 (+ ?v_92 x_64)) (?v_113 (+ ?v_106 x_64)) (?v_127 (+ ?v_120 x_64)) (?v_141 (+ ?v_134 x_64)) (?v_155 (+ ?v_148 x_64)) (?v_169 (+ ?v_162 x_64)) (?v_183 (+ ?v_176 x_64)) (?v_197 (+ ?v_190 x_64)) (?v_211 (+ ?v_204 x_64)) (?v_225 (+ ?v_218 x_64)) (?v_239 (+ ?v_232 x_64))) (and (and (and (and (and (and (and (and (and (and (and (and (and (and (and (and (and (and (and (and (and (and (and (and (and (and (and (and (and (and (and (and (and (and (and (and (and (and (and (and (and (and (and (and (and (and (and (and (and (and (and (and (and (and (and (and (and (and (and (and (and (and (and (and (and (and (and (and (and (and (and (and (and (and (and (and (and (and (and (and (and (and (and (and (and (and (and (and (and (and (and (and (and (and (and (and (and (and (and (and (and (and (and (and (and (and (and (and (and (and (and (and (and (and (and (and (and (and (and (and (and (and (and (and (and (and (and (and (and (and (and (and (and (and (and (and (and (and (and (and (and (and (and (and (and (and (and (and (and (and (and (and (and (and (and (and (and (and (and (and (and (and (and (and (and (and (and (and (and (and (and (and (and (and (and (and (and (and (and (and (and (and (and (and (and (and (and (and (and (and (and (and (and (and (and (and (and (and (and (and (and (and (and (and (and (and (and (and (and (and (and (and (> x_62 0) (> x_63 0)) (>= x_64 0)) (< x_64 x_62)) (< x_64 x_63)) (>= x_68 0)) (< x_68 x_62)) (< x_68 x_63)) (or (= x_56 x_57) (= x_58 x_59))) (or (= x_52 x_53) (= x_54 x_55))) (or (= x_48 x_49) (= x_50 x_51))) (or (= x_44 x_45) (= x_46 x_47))) (or (= x_40 x_41) (= x_42 x_43))) (or (= x_36 x_37) (= x_38 x_39))) (or (= x_32 x_33) (= x_34 x_35))) (or (= x_28 x_29) (= x_30 x_31))) (or (= x_24 x_25) (= x_26 x_27))) (or (= x_20 x_21) (= x_22 x_23))) (or (= x_16 x_17) (= x_18 x_19))) (or (= x_12 x_13) (= x_14 x_15))) (or (= x_8 x_9) (= x_10 x_11))) (or (= x_4 x_5) (= x_6 x_7))) (or (= x_0 x_1) (= x_2 x_3))) (or (<= x_141 ?v_0) (<= (- (+ x_141 x_63) x_64) x_140))) (or (<= x_142 ?v_0) (<= (- (+ x_142 x_63) x_64) x_140))) (or (<= x_143 ?v_0) (<= (- (+ x_143 x_62) x_68) x_139))) (<= x_143 (+ ?v_0 x_68))) (<= x_142 ?v_1)) (<= x_141 ?v_1)) (<= ?v_0 x_139)) (<= ?v_0 x_140)) (or (<= x_136 ?v_2) (<= (- (+ x_136 x_63) x_64) x_135))) (or (<= x_137 ?v_2) (<= (- (+ x_137 x_63) x_64) x_135))) (or ?v_38 (<= (- (+ x_138 x_62) x_68) x_134))) (<= x_138 ?v_40)) (<= x_137 ?v_3)) (<= x_136 ?v_3)) (<= ?v_2 x_134)) (<= ?v_2 x_135)) (or (<= x_131 ?v_4) (<= (- (+ x_131 x_63) x_64) x_130))) (or (<= x_132 ?v_4) (<= (- (+ x_132 x_63) x_64) x_130))) (or ?v_52 (<= (- (+ x_133 x_62) x_68) x_129))) (<= x_133 ?v_54)) (<= x_132 ?v_5)) (<= x_131 ?v_5)) (<= ?v_4 x_129)) (<= ?v_4 x_130)) (or (<= x_126 ?v_6) (<= (- (+ x_126 x_63) x_64) x_125))) (or (<= x_127 ?v_6) (<= (- (+ x_127 x_63) x_64) x_125))) (or ?v_66 (<= (- (+ x_128 x_62) x_68) x_124))) (<= x_128 ?v_68)) (<= x_127 ?v_7)) (<= x_126 ?v_7)) (<= ?v_6 x_124)) (<= ?v_6 x_125)) (or (<= x_121 ?v_8) (<= (- (+ x_121 x_63) x_64) x_120))) (or (<= x_122 ?v_8) (<= (- (+ x_122 x_63) x_64) x_120))) (or ?v_80 (<= (- (+ x_123 x_62) x_68) x_119))) (<= x_123 ?v_82)) (<= x_122 ?v_9)) (<= x_121 ?v_9)) (<= ?v_8 x_119)) (<= ?v_8 x_120)) (or (<= x_116 ?v_10) (<= (- (+ x_116 x_63) x_64) x_115))) (or (<= x_117 ?v_10) (<= (- (+ x_117 x_63) x_64) x_115))) (or ?v_94 (<= (- (+ x_118 x_62) x_68) x_114))) (<= x_118 ?v_96)) (<= x_117 ?v_11)) (<= x_116 ?v_11)) (<= ?v_10 x_114)) (<= ?v_10 x_115)) (or (<= x_111 ?v_12) (<= (- (+ x_111 x_63) x_64) x_110))) (or (<= x_112 ?v_12) (<= (- (+ x_112 x_63) x_64) x_110))) (or ?v_108 (<= (- (+ x_113 x_62) x_68) x_109))) (<= x_113 ?v_110)) (<= x_112 ?v_13)) (<= x_111 ?v_13)) (<= ?v_12 x_109)) (<= ?v_12 x_110)) (or (<= x_106 ?v_14) (<= (- (+ x_106 x_63) x_64) x_105))) (or (<= x_107 ?v_14) (<= (- (+ x_107 x_63) x_64) x_105))) (or ?v_122 (<= (- (+ x_108 x_62) x_68) x_104))) (<= x_108 ?v_124)) (<= x_107 ?v_15)) (<= x_106 ?v_15)) (<= ?v_14 x_104)) (<= ?v_14 x_105)) (or (<= x_101 ?v_16) (<= (- (+ x_101 x_63) x_64) x_100))) (or (<= x_102 ?v_16) (<= (- (+ x_102 x_63) x_64) x_100))) (or ?v_136 (<= (- (+ x_103 x_62) x_68) x_99))) (<= x_103 ?v_138)) (<= x_102 ?v_17)) (<= x_101 ?v_17)) (<= ?v_16 x_99)) (<= ?v_16 x_100)) (or (<= x_96 ?v_18) (<= (- (+ x_96 x_63) x_64) x_95))) (or (<= x_97 ?v_18) (<= (- (+ x_97 x_63) x_64) x_95))) (or ?v_150 (<= (- (+ x_98 x_62) x_68) x_94))) (<= x_98 ?v_152)) (<= x_97 ?v_19)) (<= x_96 ?v_19)) (<= ?v_18 x_94)) (<= ?v_18 x_95)) (or (<= x_91 ?v_20) (<= (- (+ x_91 x_63) x_64) x_90))) (or (<= x_92 ?v_20) (<= (- (+ x_92 x_63) x_64) x_90))) (or ?v_164 (<= (- (+ x_93 x_62) x_68) x_89))) (<= x_93 ?v_166)) (<= x_92 ?v_21)) (<= x_91 ?v_21)) (<= ?v_20 x_89)) (<= ?v_20 x_90)) (or (<= x_86 ?v_22) (<= (- (+ x_86 x_63) x_64) x_85))) (or (<= x_87 ?v_22) (<= (- (+ x_87 x_63) x_64) x_85))) (or ?v_178 (<= (- (+ x_88 x_62) x_68) x_84))) (<= x_88 ?v_180)) (<= x_87 ?v_23)) (<= x_86 ?v_23)) (<= ?v_22 x_84)) (<= ?v_22 x_85)) (or (<= x_81 ?v_24) (<= (- (+ x_81 x_63) x_64) x_80))) (or (<= x_82 ?v_24) (<= (- (+ x_82 x_63) x_64) x_80))) (or ?v_192 (<= (- (+ x_83 x_62) x_68) x_79))) (<= x_83 ?v_194)) (<= x_82 ?v_25)) (<= x_81 ?v_25)) (<= ?v_24 x_79)) (<= ?v_24 x_80)) (or (<= x_76 ?v_26) (<= (- (+ x_76 x_63) x_64) x_75))) (or (<= x_77 ?v_26) (<= (- (+ x_77 x_63) x_64) x_75))) (or ?v_206 (<= (- (+ x_78 x_62) x_68) x_74))) (<= x_78 ?v_208)) (<= x_77 ?v_27)) (<= x_76 ?v_27)) (<= ?v_26 x_74)) (<= ?v_26 x_75)) (or (<= x_71 ?v_28) (<= (- (+ x_71 x_63) x_64) x_70))) (or (<= x_72 ?v_28) (<= (- (+ x_72 x_63) x_64) x_70))) (or ?v_220 (<= (- (+ x_73 x_62) x_68) x_69))) (<= x_73 ?v_222)) (<= x_72 ?v_29)) (<= x_71 ?v_29)) (<= ?v_28 x_69)) (<= ?v_28 x_70)) (or (<= x_65 ?v_30) (<= (- (+ x_65 x_63) x_64) x_61))) (or (<= x_66 ?v_30) (<= (- (+ x_66 x_63) x_64) x_61))) (or ?v_234 (<= (- (+ x_67 x_62) x_68) x_60))) (<= x_67 ?v_236)) (<= x_66 ?v_31)) (<= x_65 ?v_31)) (<= ?v_30 x_60)) (<= ?v_30 x_61)) (or (and (and (and (and (and (and (and (and (and (= x_276 0) (= x_277 x_270)) (= ?v_2 x_134)) (<= (+ ?v_2 x_62) x_139)) (or ?v_34 (= x_278 x_56))) (= x_279 x_267)) (= x_280 x_268)) (= x_140 x_135)) ?v_32) ?v_33) (and (and (and (and (and (and (and (and (and (= x_276 1) (= x_280 x_267)) (= ?v_2 x_135)) (<= (+ ?v_2 x_63) x_140)) (or (and (and (= x_281 0) ?v_32) ?v_33) (and (and (= x_281 1) (= x_265 x_268)) (= x_274 (not x_265))))) (= x_282 x_270)) (= x_277 x_56)) (= x_283 x_58)) (= x_139 x_134)) ?v_34))) (or (or (and (and (and (= x_284 0) ?v_42) (or (not (<= x_136 ?v_36)) (= x_282 x_265))) ?v_37) (and (and (and (= x_284 1) ?v_35) (xor x_265 x_274)) (= x_141 ?v_43))) (and (and (and (= x_284 2) ?v_35) (= x_265 x_274)) ?v_37))) (or (or (and (and (and (= x_285 0) (not ?v_39)) (or (not ?v_38) (= x_279 x_57))) ?v_41) (and (and (and (= x_285 1) ?v_39) (xor x_57 x_278)) (= x_143 ?v_40))) (and (and (and (= x_285 2) ?v_39) (= x_57 x_278)) ?v_41))) (or (or (and (and (and (= x_286 0) ?v_42) (or (not (<= x_137 ?v_36)) (= x_283 x_59))) ?v_45) (and (and (and (= x_286 1) ?v_35) (not ?v_44)) (= x_142 ?v_43))) (and (and (and (= x_286 2) ?v_35) ?v_44) ?v_45))) (or (and (and (and (and (and (and (and (and (and (= x_266 0) (= x_56 x_261)) (= ?v_4 x_129)) (<= (+ ?v_4 x_62) x_134)) (or ?v_48 (= x_57 x_52))) (= x_267 x_258)) (= x_268 x_259)) (= x_135 x_130)) ?v_46) ?v_47) (and (and (and (and (and (and (and (and (and (= x_266 1) (= x_268 x_258)) (= ?v_4 x_130)) (<= (+ ?v_4 x_63) x_135)) (or (and (and (= x_269 0) ?v_46) ?v_47) (and (and (= x_269 1) (= x_256 x_259)) (= x_265 (not x_256))))) (= x_270 x_261)) (= x_56 x_52)) (= x_58 x_54)) (= x_134 x_129)) ?v_48))) (or (or (and (and (and (= x_271 0) ?v_56) (or (not (<= x_131 ?v_50)) (= x_270 x_256))) ?v_51) (and (and (and (= x_271 1) ?v_49) (xor x_256 x_265)) (= x_136 ?v_57))) (and (and (and (= x_271 2) ?v_49) (= x_256 x_265)) ?v_51))) (or (or (and (and (and (= x_272 0) (not ?v_53)) (or (not ?v_52) (= x_267 x_53))) ?v_55) (and (and (and (= x_272 1) ?v_53) (xor x_53 x_57)) (= x_138 ?v_54))) (and (and (and (= x_272 2) ?v_53) (= x_53 x_57)) ?v_55))) (or (or (and (and (and (= x_273 0) ?v_56) (or (not (<= x_132 ?v_50)) (= x_58 x_55))) ?v_59) (and (and (and (= x_273 1) ?v_49) (not ?v_58)) (= x_137 ?v_57))) (and (and (and (= x_273 2) ?v_49) ?v_58) ?v_59))) (or (and (and (and (and (and (and (and (and (and (= x_257 0) (= x_52 x_252)) (= ?v_6 x_124)) (<= (+ ?v_6 x_62) x_129)) (or ?v_62 (= x_53 x_48))) (= x_258 x_249)) (= x_259 x_250)) (= x_130 x_125)) ?v_60) ?v_61) (and (and (and (and (and (and (and (and (and (= x_257 1) (= x_259 x_249)) (= ?v_6 x_125)) (<= (+ ?v_6 x_63) x_130)) (or (and (and (= x_260 0) ?v_60) ?v_61) (and (and (= x_260 1) (= x_247 x_250)) (= x_256 (not x_247))))) (= x_261 x_252)) (= x_52 x_48)) (= x_54 x_50)) (= x_129 x_124)) ?v_62))) (or (or (and (and (and (= x_262 0) ?v_70) (or (not (<= x_126 ?v_64)) (= x_261 x_247))) ?v_65) (and (and (and (= x_262 1) ?v_63) (xor x_247 x_256)) (= x_131 ?v_71))) (and (and (and (= x_262 2) ?v_63) (= x_247 x_256)) ?v_65))) (or (or (and (and (and (= x_263 0) (not ?v_67)) (or (not ?v_66) (= x_258 x_49))) ?v_69) (and (and (and (= x_263 1) ?v_67) (xor x_49 x_53)) (= x_133 ?v_68))) (and (and (and (= x_263 2) ?v_67) (= x_49 x_53)) ?v_69))) (or (or (and (and (and (= x_264 0) ?v_70) (or (not (<= x_127 ?v_64)) (= x_54 x_51))) ?v_73) (and (and (and (= x_264 1) ?v_63) (not ?v_72)) (= x_132 ?v_71))) (and (and (and (= x_264 2) ?v_63) ?v_72) ?v_73))) (or (and (and (and (and (and (and (and (and (and (= x_248 0) (= x_48 x_243)) (= ?v_8 x_119)) (<= (+ ?v_8 x_62) x_124)) (or ?v_76 (= x_49 x_44))) (= x_249 x_240)) (= x_250 x_241)) (= x_125 x_120)) ?v_74) ?v_75) (and (and (and (and (and (and (and (and (and (= x_248 1) (= x_250 x_240)) (= ?v_8 x_120)) (<= (+ ?v_8 x_63) x_125)) (or (and (and (= x_251 0) ?v_74) ?v_75) (and (and (= x_251 1) (= x_238 x_241)) (= x_247 (not x_238))))) (= x_252 x_243)) (= x_48 x_44)) (= x_50 x_46)) (= x_124 x_119)) ?v_76))) (or (or (and (and (and (= x_253 0) ?v_84) (or (not (<= x_121 ?v_78)) (= x_252 x_238))) ?v_79) (and (and (and (= x_253 1) ?v_77) (xor x_238 x_247)) (= x_126 ?v_85))) (and (and (and (= x_253 2) ?v_77) (= x_238 x_247)) ?v_79))) (or (or (and (and (and (= x_254 0) (not ?v_81)) (or (not ?v_80) (= x_249 x_45))) ?v_83) (and (and (and (= x_254 1) ?v_81) (xor x_45 x_49)) (= x_128 ?v_82))) (and (and (and (= x_254 2) ?v_81) (= x_45 x_49)) ?v_83))) (or (or (and (and (and (= x_255 0) ?v_84) (or (not (<= x_122 ?v_78)) (= x_50 x_47))) ?v_87) (and (and (and (= x_255 1) ?v_77) (not ?v_86)) (= x_127 ?v_85))) (and (and (and (= x_255 2) ?v_77) ?v_86) ?v_87))) (or (and (and (and (and (and (and (and (and (and (= x_239 0) (= x_44 x_234)) (= ?v_10 x_114)) (<= (+ ?v_10 x_62) x_119)) (or ?v_90 (= x_45 x_40))) (= x_240 x_231)) (= x_241 x_232)) (= x_120 x_115)) ?v_88) ?v_89) (and (and (and (and (and (and (and (and (and (= x_239 1) (= x_241 x_231)) (= ?v_10 x_115)) (<= (+ ?v_10 x_63) x_120)) (or (and (and (= x_242 0) ?v_88) ?v_89) (and (and (= x_242 1) (= x_229 x_232)) (= x_238 (not x_229))))) (= x_243 x_234)) (= x_44 x_40)) (= x_46 x_42)) (= x_119 x_114)) ?v_90))) (or (or (and (and (and (= x_244 0) ?v_98) (or (not (<= x_116 ?v_92)) (= x_243 x_229))) ?v_93) (and (and (and (= x_244 1) ?v_91) (xor x_229 x_238)) (= x_121 ?v_99))) (and (and (and (= x_244 2) ?v_91) (= x_229 x_238)) ?v_93))) (or (or (and (and (and (= x_245 0) (not ?v_95)) (or (not ?v_94) (= x_240 x_41))) ?v_97) (and (and (and (= x_245 1) ?v_95) (xor x_41 x_45)) (= x_123 ?v_96))) (and (and (and (= x_245 2) ?v_95) (= x_41 x_45)) ?v_97))) (or (or (and (and (and (= x_246 0) ?v_98) (or (not (<= x_117 ?v_92)) (= x_46 x_43))) ?v_101) (and (and (and (= x_246 1) ?v_91) (not ?v_100)) (= x_122 ?v_99))) (and (and (and (= x_246 2) ?v_91) ?v_100) ?v_101))) (or (and (and (and (and (and (and (and (and (and (= x_230 0) (= x_40 x_225)) (= ?v_12 x_109)) (<= (+ ?v_12 x_62) x_114)) (or ?v_104 (= x_41 x_36))) (= x_231 x_222)) (= x_232 x_223)) (= x_115 x_110)) ?v_102) ?v_103) (and (and (and (and (and (and (and (and (and (= x_230 1) (= x_232 x_222)) (= ?v_12 x_110)) (<= (+ ?v_12 x_63) x_115)) (or (and (and (= x_233 0) ?v_102) ?v_103) (and (and (= x_233 1) (= x_220 x_223)) (= x_229 (not x_220))))) (= x_234 x_225)) (= x_40 x_36)) (= x_42 x_38)) (= x_114 x_109)) ?v_104))) (or (or (and (and (and (= x_235 0) ?v_112) (or (not (<= x_111 ?v_106)) (= x_234 x_220))) ?v_107) (and (and (and (= x_235 1) ?v_105) (xor x_220 x_229)) (= x_116 ?v_113))) (and (and (and (= x_235 2) ?v_105) (= x_220 x_229)) ?v_107))) (or (or (and (and (and (= x_236 0) (not ?v_109)) (or (not ?v_108) (= x_231 x_37))) ?v_111) (and (and (and (= x_236 1) ?v_109) (xor x_37 x_41)) (= x_118 ?v_110))) (and (and (and (= x_236 2) ?v_109) (= x_37 x_41)) ?v_111))) (or (or (and (and (and (= x_237 0) ?v_112) (or (not (<= x_112 ?v_106)) (= x_42 x_39))) ?v_115) (and (and (and (= x_237 1) ?v_105) (not ?v_114)) (= x_117 ?v_113))) (and (and (and (= x_237 2) ?v_105) ?v_114) ?v_115))) (or (and (and (and (and (and (and (and (and (and (= x_221 0) (= x_36 x_216)) (= ?v_14 x_104)) (<= (+ ?v_14 x_62) x_109)) (or ?v_118 (= x_37 x_32))) (= x_222 x_213)) (= x_223 x_214)) (= x_110 x_105)) ?v_116) ?v_117) (and (and (and (and (and (and (and (and (and (= x_221 1) (= x_223 x_213)) (= ?v_14 x_105)) (<= (+ ?v_14 x_63) x_110)) (or (and (and (= x_224 0) ?v_116) ?v_117) (and (and (= x_224 1) (= x_211 x_214)) (= x_220 (not x_211))))) (= x_225 x_216)) (= x_36 x_32)) (= x_38 x_34)) (= x_109 x_104)) ?v_118))) (or (or (and (and (and (= x_226 0) ?v_126) (or (not (<= x_106 ?v_120)) (= x_225 x_211))) ?v_121) (and (and (and (= x_226 1) ?v_119) (xor x_211 x_220)) (= x_111 ?v_127))) (and (and (and (= x_226 2) ?v_119) (= x_211 x_220)) ?v_121))) (or (or (and (and (and (= x_227 0) (not ?v_123)) (or (not ?v_122) (= x_222 x_33))) ?v_125) (and (and (and (= x_227 1) ?v_123) (xor x_33 x_37)) (= x_113 ?v_124))) (and (and (and (= x_227 2) ?v_123) (= x_33 x_37)) ?v_125))) (or (or (and (and (and (= x_228 0) ?v_126) (or (not (<= x_107 ?v_120)) (= x_38 x_35))) ?v_129) (and (and (and (= x_228 1) ?v_119) (not ?v_128)) (= x_112 ?v_127))) (and (and (and (= x_228 2) ?v_119) ?v_128) ?v_129))) (or (and (and (and (and (and (and (and (and (and (= x_212 0) (= x_32 x_207)) (= ?v_16 x_99)) (<= (+ ?v_16 x_62) x_104)) (or ?v_132 (= x_33 x_28))) (= x_213 x_204)) (= x_214 x_205)) (= x_105 x_100)) ?v_130) ?v_131) (and (and (and (and (and (and (and (and (and (= x_212 1) (= x_214 x_204)) (= ?v_16 x_100)) (<= (+ ?v_16 x_63) x_105)) (or (and (and (= x_215 0) ?v_130) ?v_131) (and (and (= x_215 1) (= x_202 x_205)) (= x_211 (not x_202))))) (= x_216 x_207)) (= x_32 x_28)) (= x_34 x_30)) (= x_104 x_99)) ?v_132))) (or (or (and (and (and (= x_217 0) ?v_140) (or (not (<= x_101 ?v_134)) (= x_216 x_202))) ?v_135) (and (and (and (= x_217 1) ?v_133) (xor x_202 x_211)) (= x_106 ?v_141))) (and (and (and (= x_217 2) ?v_133) (= x_202 x_211)) ?v_135))) (or (or (and (and (and (= x_218 0) (not ?v_137)) (or (not ?v_136) (= x_213 x_29))) ?v_139) (and (and (and (= x_218 1) ?v_137) (xor x_29 x_33)) (= x_108 ?v_138))) (and (and (and (= x_218 2) ?v_137) (= x_29 x_33)) ?v_139))) (or (or (and (and (and (= x_219 0) ?v_140) (or (not (<= x_102 ?v_134)) (= x_34 x_31))) ?v_143) (and (and (and (= x_219 1) ?v_133) (not ?v_142)) (= x_107 ?v_141))) (and (and (and (= x_219 2) ?v_133) ?v_142) ?v_143))) (or (and (and (and (and (and (and (and (and (and (= x_203 0) (= x_28 x_198)) (= ?v_18 x_94)) (<= (+ ?v_18 x_62) x_99)) (or ?v_146 (= x_29 x_24))) (= x_204 x_195)) (= x_205 x_196)) (= x_100 x_95)) ?v_144) ?v_145) (and (and (and (and (and (and (and (and (and (= x_203 1) (= x_205 x_195)) (= ?v_18 x_95)) (<= (+ ?v_18 x_63) x_100)) (or (and (and (= x_206 0) ?v_144) ?v_145) (and (and (= x_206 1) (= x_193 x_196)) (= x_202 (not x_193))))) (= x_207 x_198)) (= x_28 x_24)) (= x_30 x_26)) (= x_99 x_94)) ?v_146))) (or (or (and (and (and (= x_208 0) ?v_154) (or (not (<= x_96 ?v_148)) (= x_207 x_193))) ?v_149) (and (and (and (= x_208 1) ?v_147) (xor x_193 x_202)) (= x_101 ?v_155))) (and (and (and (= x_208 2) ?v_147) (= x_193 x_202)) ?v_149))) (or (or (and (and (and (= x_209 0) (not ?v_151)) (or (not ?v_150) (= x_204 x_25))) ?v_153) (and (and (and (= x_209 1) ?v_151) (xor x_25 x_29)) (= x_103 ?v_152))) (and (and (and (= x_209 2) ?v_151) (= x_25 x_29)) ?v_153))) (or (or (and (and (and (= x_210 0) ?v_154) (or (not (<= x_97 ?v_148)) (= x_30 x_27))) ?v_157) (and (and (and (= x_210 1) ?v_147) (not ?v_156)) (= x_102 ?v_155))) (and (and (and (= x_210 2) ?v_147) ?v_156) ?v_157))) (or (and (and (and (and (and (and (and (and (and (= x_194 0) (= x_24 x_189)) (= ?v_20 x_89)) (<= (+ ?v_20 x_62) x_94)) (or ?v_160 (= x_25 x_20))) (= x_195 x_186)) (= x_196 x_187)) (= x_95 x_90)) ?v_158) ?v_159) (and (and (and (and (and (and (and (and (and (= x_194 1) (= x_196 x_186)) (= ?v_20 x_90)) (<= (+ ?v_20 x_63) x_95)) (or (and (and (= x_197 0) ?v_158) ?v_159) (and (and (= x_197 1) (= x_184 x_187)) (= x_193 (not x_184))))) (= x_198 x_189)) (= x_24 x_20)) (= x_26 x_22)) (= x_94 x_89)) ?v_160))) (or (or (and (and (and (= x_199 0) ?v_168) (or (not (<= x_91 ?v_162)) (= x_198 x_184))) ?v_163) (and (and (and (= x_199 1) ?v_161) (xor x_184 x_193)) (= x_96 ?v_169))) (and (and (and (= x_199 2) ?v_161) (= x_184 x_193)) ?v_163))) (or (or (and (and (and (= x_200 0) (not ?v_165)) (or (not ?v_164) (= x_195 x_21))) ?v_167) (and (and (and (= x_200 1) ?v_165) (xor x_21 x_25)) (= x_98 ?v_166))) (and (and (and (= x_200 2) ?v_165) (= x_21 x_25)) ?v_167))) (or (or (and (and (and (= x_201 0) ?v_168) (or (not (<= x_92 ?v_162)) (= x_26 x_23))) ?v_171) (and (and (and (= x_201 1) ?v_161) (not ?v_170)) (= x_97 ?v_169))) (and (and (and (= x_201 2) ?v_161) ?v_170) ?v_171))) (or (and (and (and (and (and (and (and (and (and (= x_185 0) (= x_20 x_180)) (= ?v_22 x_84)) (<= (+ ?v_22 x_62) x_89)) (or ?v_174 (= x_21 x_16))) (= x_186 x_177)) (= x_187 x_178)) (= x_90 x_85)) ?v_172) ?v_173) (and (and (and (and (and (and (and (and (and (= x_185 1) (= x_187 x_177)) (= ?v_22 x_85)) (<= (+ ?v_22 x_63) x_90)) (or (and (and (= x_188 0) ?v_172) ?v_173) (and (and (= x_188 1) (= x_175 x_178)) (= x_184 (not x_175))))) (= x_189 x_180)) (= x_20 x_16)) (= x_22 x_18)) (= x_89 x_84)) ?v_174))) (or (or (and (and (and (= x_190 0) ?v_182) (or (not (<= x_86 ?v_176)) (= x_189 x_175))) ?v_177) (and (and (and (= x_190 1) ?v_175) (xor x_175 x_184)) (= x_91 ?v_183))) (and (and (and (= x_190 2) ?v_175) (= x_175 x_184)) ?v_177))) (or (or (and (and (and (= x_191 0) (not ?v_179)) (or (not ?v_178) (= x_186 x_17))) ?v_181) (and (and (and (= x_191 1) ?v_179) (xor x_17 x_21)) (= x_93 ?v_180))) (and (and (and (= x_191 2) ?v_179) (= x_17 x_21)) ?v_181))) (or (or (and (and (and (= x_192 0) ?v_182) (or (not (<= x_87 ?v_176)) (= x_22 x_19))) ?v_185) (and (and (and (= x_192 1) ?v_175) (not ?v_184)) (= x_92 ?v_183))) (and (and (and (= x_192 2) ?v_175) ?v_184) ?v_185))) (or (and (and (and (and (and (and (and (and (and (= x_176 0) (= x_16 x_171)) (= ?v_24 x_79)) (<= (+ ?v_24 x_62) x_84)) (or ?v_188 (= x_17 x_12))) (= x_177 x_168)) (= x_178 x_169)) (= x_85 x_80)) ?v_186) ?v_187) (and (and (and (and (and (and (and (and (and (= x_176 1) (= x_178 x_168)) (= ?v_24 x_80)) (<= (+ ?v_24 x_63) x_85)) (or (and (and (= x_179 0) ?v_186) ?v_187) (and (and (= x_179 1) (= x_166 x_169)) (= x_175 (not x_166))))) (= x_180 x_171)) (= x_16 x_12)) (= x_18 x_14)) (= x_84 x_79)) ?v_188))) (or (or (and (and (and (= x_181 0) ?v_196) (or (not (<= x_81 ?v_190)) (= x_180 x_166))) ?v_191) (and (and (and (= x_181 1) ?v_189) (xor x_166 x_175)) (= x_86 ?v_197))) (and (and (and (= x_181 2) ?v_189) (= x_166 x_175)) ?v_191))) (or (or (and (and (and (= x_182 0) (not ?v_193)) (or (not ?v_192) (= x_177 x_13))) ?v_195) (and (and (and (= x_182 1) ?v_193) (xor x_13 x_17)) (= x_88 ?v_194))) (and (and (and (= x_182 2) ?v_193) (= x_13 x_17)) ?v_195))) (or (or (and (and (and (= x_183 0) ?v_196) (or (not (<= x_82 ?v_190)) (= x_18 x_15))) ?v_199) (and (and (and (= x_183 1) ?v_189) (not ?v_198)) (= x_87 ?v_197))) (and (and (and (= x_183 2) ?v_189) ?v_198) ?v_199))) (or (and (and (and (and (and (and (and (and (and (= x_167 0) (= x_12 x_162)) (= ?v_26 x_74)) (<= (+ ?v_26 x_62) x_79)) (or ?v_202 (= x_13 x_8))) (= x_168 x_159)) (= x_169 x_160)) (= x_80 x_75)) ?v_200) ?v_201) (and (and (and (and (and (and (and (and (and (= x_167 1) (= x_169 x_159)) (= ?v_26 x_75)) (<= (+ ?v_26 x_63) x_80)) (or (and (and (= x_170 0) ?v_200) ?v_201) (and (and (= x_170 1) (= x_157 x_160)) (= x_166 (not x_157))))) (= x_171 x_162)) (= x_12 x_8)) (= x_14 x_10)) (= x_79 x_74)) ?v_202))) (or (or (and (and (and (= x_172 0) ?v_210) (or (not (<= x_76 ?v_204)) (= x_171 x_157))) ?v_205) (and (and (and (= x_172 1) ?v_203) (xor x_157 x_166)) (= x_81 ?v_211))) (and (and (and (= x_172 2) ?v_203) (= x_157 x_166)) ?v_205))) (or (or (and (and (and (= x_173 0) (not ?v_207)) (or (not ?v_206) (= x_168 x_9))) ?v_209) (and (and (and (= x_173 1) ?v_207) (xor x_9 x_13)) (= x_83 ?v_208))) (and (and (and (= x_173 2) ?v_207) (= x_9 x_13)) ?v_209))) (or (or (and (and (and (= x_174 0) ?v_210) (or (not (<= x_77 ?v_204)) (= x_14 x_11))) ?v_213) (and (and (and (= x_174 1) ?v_203) (not ?v_212)) (= x_82 ?v_211))) (and (and (and (= x_174 2) ?v_203) ?v_212) ?v_213))) (or (and (and (and (and (and (and (and (and (and (= x_158 0) (= x_8 x_153)) (= ?v_28 x_69)) (<= (+ ?v_28 x_62) x_74)) (or ?v_216 (= x_9 x_4))) (= x_159 x_148)) (= x_160 x_150)) (= x_75 x_70)) ?v_214) ?v_215) (and (and (and (and (and (and (and (and (and (= x_158 1) (= x_160 x_148)) (= ?v_28 x_70)) (<= (+ ?v_28 x_63) x_75)) (or (and (and (= x_161 0) ?v_214) ?v_215) (and (and (= x_161 1) (= x_144 x_150)) (= x_157 (not x_144))))) (= x_162 x_153)) (= x_8 x_4)) (= x_10 x_6)) (= x_74 x_69)) ?v_216))) (or (or (and (and (and (= x_163 0) ?v_224) (or (not (<= x_71 ?v_218)) (= x_162 x_144))) ?v_219) (and (and (and (= x_163 1) ?v_217) (xor x_144 x_157)) (= x_76 ?v_225))) (and (and (and (= x_163 2) ?v_217) (= x_144 x_157)) ?v_219))) (or (or (and (and (and (= x_164 0) (not ?v_221)) (or (not ?v_220) (= x_159 x_5))) ?v_223) (and (and (and (= x_164 1) ?v_221) (xor x_5 x_9)) (= x_78 ?v_222))) (and (and (and (= x_164 2) ?v_221) (= x_5 x_9)) ?v_223))) (or (or (and (and (and (= x_165 0) ?v_224) (or (not (<= x_72 ?v_218)) (= x_10 x_7))) ?v_227) (and (and (and (= x_165 1) ?v_217) (not ?v_226)) (= x_77 ?v_225))) (and (and (and (= x_165 2) ?v_217) ?v_226) ?v_227))) (or (and (and (and (and (and (and (and (and (and (= x_146 0) (= x_4 x_147)) (= ?v_30 x_60)) (<= (+ ?v_30 x_62) x_69)) (or ?v_230 (= x_5 x_0))) (= x_148 x_149)) (= x_150 x_151)) (= x_70 x_61)) ?v_228) ?v_229) (and (and (and (and (and (and (and (and (and (= x_146 1) (= x_150 x_149)) (= ?v_30 x_61)) (<= (+ ?v_30 x_63) x_70)) (or (and (and (= x_152 0) ?v_228) ?v_229) (and (and (= x_152 1) (= x_145 x_151)) (= x_144 (not x_145))))) (= x_153 x_147)) (= x_4 x_0)) (= x_6 x_2)) (= x_69 x_60)) ?v_230))) (or (or (and (and (and (= x_154 0) ?v_238) (or (not (<= x_65 ?v_232)) (= x_153 x_145))) ?v_233) (and (and (and (= x_154 1) ?v_231) (xor x_145 x_144)) (= x_71 ?v_239))) (and (and (and (= x_154 2) ?v_231) (= x_145 x_144)) ?v_233))) (or (or (and (and (and (= x_155 0) (not ?v_235)) (or (not ?v_234) (= x_148 x_1))) ?v_237) (and (and (and (= x_155 1) ?v_235) (xor x_1 x_5)) (= x_73 ?v_236))) (and (and (and (= x_155 2) ?v_235) (= x_1 x_5)) ?v_237))) (or (or (and (and (and (= x_156 0) ?v_238) (or (not (<= x_66 ?v_232)) (= x_6 x_3))) ?v_241) (and (and (and (= x_156 1) ?v_231) (not ?v_240)) (= x_72 ?v_239))) (and (and (and (= x_156 2) ?v_231) ?v_240) ?v_241))) (xor x_277 x_278)) (not (= x_283 x_275)))))))))))))))))))))
(check-sat)
(exit)
